; benchmark generated from python API
(set-info :status unknown)
(declare-datatypes ((RealState 0)) (((RMk1 (rval1 Real)) (RMk2 (rval2 Real)))))
 (assert
 (exists ((|v11:0_st| RealState) (val!5308 Real) )(exists ((|v10:1_st| RealState) (val!5309 Real) )(exists ((|v9:2_st| RealState) (val!5310 Real) )(exists ((|v8:3_st| RealState) (val!5311 Real) )(forall ((|v7:4| Real) )(forall ((|v6:5| Real) )(forall ((|v5:6| Real) )(forall ((|v4:7| Real) )(exists ((|v3:8_st| RealState) (val!5312 Real) )(exists ((|v2:9_st| RealState) (val!5313 Real) )(exists ((|v1:10_st| RealState) (val!5314 Real) )(exists ((|v0:11_st| RealState) (val!5315 Real) )(let ((?x3138 (rval2 |v1:10_st|)))
 (let ((?x71 (- 9.0)))
 (let ((?x639 (* ?x71 ?x3138)))
 (let ((?x1111 (+ (+ (+ (* 18.0 |v6:5|) (* (- 14.0) |v5:6|)) (* 5.0 |v4:7|)) ?x639)))
 (let ((?x1774 (- 11.0)))
 (let ((?x300 (* ?x1774 |v7:4|)))
 (let ((?x3223 (+ (+ (+ (* (- 6.0) (rval2 |v10:1_st|)) (* (- 1.0) |v5:6|)) ?x300) (* (- 17.0) (rval2 |v8:3_st|)))))
 (let ((?x1477 (- 5.0)))
 (let ((?x2387 (- 1.0)))
 (let ((?x1408 (* ?x2387 |v5:6|)))
 (let ((?x2934 (+ (+ (+ (* 4.0 (rval2 |v9:2_st|)) (* ?x1774 |v5:6|)) (* 6.0 |v6:5|)) ?x1408)))
 (let ((?x2072 (- 14.0)))
 (let ((?x2143 (* ?x2072 |v7:4|)))
 (let ((?x703 (+ (+ (+ (* ?x71 (rval2 |v9:2_st|)) (* 15.0 |v6:5|)) (* 8.0 |v6:5|)) ?x2143)))
 (let (($x2863 (and (and (<= ?x703 1.0) (<= ?x2934 ?x1477)) (and (<= ?x3223 16.0) (<= ?x1111 3.0)))))
 (let ((?x1642 (- 18.0)))
 (let ((?x172 (* 8.0 ?x3138)))
 (let ((?x3071 (rval2 |v8:3_st|)))
 (let ((?x2106 (* ?x2387 ?x3071)))
 (let ((?x2544 (+ (+ (+ (* 19.0 (rval2 |v2:9_st|)) (* (- 20.0) (rval2 |v11:0_st|))) ?x2106) ?x172)))
 (let ((?x1709 (- 16.0)))
 (let ((?x2616 (* ?x1709 |v7:4|)))
 (let ((?x1194 (+ (+ (+ (* 8.0 |v6:5|) (* 5.0 (rval2 |v11:0_st|))) (* (- 7.0) ?x3138)) ?x2616)))
 (let ((?x273 (rval2 |v2:9_st|)))
 (let ((?x1949 (* 5.0 ?x273)))
 (let (($x2751 (<= (+ (+ (+ (* ?x1477 |v5:6|) (* (- 19.0) |v5:6|)) (* 0.0 |v5:6|)) ?x1949) ?x2387)))
 (let ((?x2648 (- 8.0)))
 (let ((?x282 (* 11.0 |v4:7|)))
 (let ((?x1876 (* 6.0 ?x3071)))
 (let ((?x650 (+ (+ (+ (* (- 15.0) |v5:6|) (* (- 20.0) (rval2 |v9:2_st|))) ?x1876) ?x282)))
 (let (($x458 (and (and (<= ?x650 ?x2648) $x2751) (and (<= ?x1194 2.0) (<= ?x2544 ?x1642)))))
 (let ((?x496 (- 19.0)))
 (let ((?x2466 (* 8.0 ?x3071)))
 (let ((?x733 (+ (+ (+ (* 20.0 |v5:6|) (* 15.0 (rval2 |v11:0_st|))) (* 14.0 |v5:6|)) ?x2466)))
 (let ((?x3044 (- 20.0)))
 (let ((?x220 (rval2 |v11:0_st|)))
 (let ((?x555 (* ?x3044 ?x220)))
 (let ((?x3355 (+ (+ (+ (* 9.0 (rval2 |v0:11_st|)) (* 19.0 ?x3071)) ?x555) (* 10.0 ?x3071))))
 (let ((?x154 (* 13.0 |v6:5|)))
 (let (($x1978 (<= (+ (+ (+ (* 9.0 ?x3071) (* 10.0 ?x3138)) (* 5.0 |v5:6|)) ?x154) 4.0)))
 (let ((?x2096 (- 10.0)))
 (let ((?x3094 (* ?x2096 |v6:5|)))
 (let ((?x1744 (+ (+ (+ (* 2.0 |v6:5|) (* 19.0 (rval2 |v0:11_st|))) (* ?x1774 ?x220)) ?x3094)))
 (let (($x2123 (or (and (<= ?x1744 12.0) $x1978) (and (<= ?x3355 ?x3044) (<= ?x733 ?x496)))))
 (let ((?x2512 (* 7.0 ?x220)))
 (let ((?x3013 (+ (+ (* (- 15.0) ?x273) (* 3.0 |v5:6|)) (* (- 2.0) (rval2 |v0:11_st|)))))
 (let ((?x345 (+ (+ (+ (* ?x2096 (rval2 |v9:2_st|)) (* (- 2.0) ?x273)) (* 6.0 |v7:4|)) (* 18.0 (rval2 |v0:11_st|)))))
 (let ((?x2233 (* ?x2387 ?x273)))
 (let ((?x2153 (+ (+ (+ (* (- 17.0) |v5:6|) (* 9.0 (rval2 |v9:2_st|))) (* 10.0 |v4:7|)) ?x2233)))
 (let ((?x302 (* 12.0 ?x3071)))
 (let (($x2637 (<= (+ (+ (+ |v4:7| (* ?x2387 |v6:5|)) (* ?x1477 (rval2 |v9:2_st|))) ?x302) ?x1477)))
 (let (($x503 (and (and $x2637 (<= ?x2153 11.0)) (and (<= ?x345 8.0) (<= (+ ?x3013 ?x2512) 13.0)))))
 (let ((?x2417 (+ (+ (+ (* ?x2072 ?x220) (* 12.0 (rval2 |v9:2_st|))) (* 18.0 |v4:7|)) (* ?x3044 (rval2 |v0:11_st|)))))
 (let ((?x2250 (rval2 |v10:1_st|)))
 (let ((?x3354 (* 15.0 ?x2250)))
 (let (($x185 (<= (+ (+ (+ (* ?x2648 ?x3138) (* 2.0 ?x273)) (* 17.0 |v4:7|)) ?x3354) 15.0)))
 (let ((?x2397 (rval2 |v3:8_st|)))
 (let ((?x3441 (* 6.0 ?x2397)))
 (let ((?x3147 (rval2 |v9:2_st|)))
 (let ((?x1756 (* 8.0 ?x3147)))
 (let (($x636 (<= (+ (+ (+ (* 6.0 (rval2 |v0:11_st|)) (* 5.0 |v7:4|)) ?x1756) ?x3441) 20.0)))
 (let ((?x977 (- 6.0)))
 (let ((?x1648 (* ?x977 ?x273)))
 (let (($x3137 (<= (+ (+ (+ (* 12.0 |v4:7|) (* ?x1774 ?x2397)) (* 18.0 |v6:5|)) ?x1648) 14.0)))
 (let ((?x2947 (+ (+ (+ (* ?x3044 |v6:5|) (* (- 7.0) |v6:5|)) (* ?x1642 |v5:6|)) (* ?x2648 (rval2 |v0:11_st|)))))
 (let ((?x2294 (* 5.0 ?x3147)))
 (let (($x2534 (<= (+ (+ (+ (* 12.0 |v5:6|) (* 8.0 ?x2397)) (* 3.0 |v4:7|)) ?x2294) 13.0)))
 (let ((?x1319 (- 13.0)))
 (let (($x814 (<= (+ (+ (+ (* 20.0 |v6:5|) (* (- 7.0) ?x3138)) ?x639) (* ?x1709 ?x220)) ?x1319)))
 (let ((?x1287 (+ (+ (+ (* 18.0 |v5:6|) (* 7.0 ?x2397)) (* (- 15.0) |v6:5|)) (* (- 2.0) ?x2397))))
 (let (($x1567 (and (and (and (<= ?x1287 18.0) $x814) (and $x2534 (<= ?x2947 ?x1642))) (and (and $x3137 $x636) (and $x185 (<= ?x2417 10.0))))))
 (let ((?x2888 (+ (+ (+ (* 8.0 |v6:5|) (* (- 17.0) (rval2 |v0:11_st|))) (* 11.0 |v7:4|)) (* ?x1642 |v6:5|))))
 (let ((?x2946 (- 12.0)))
 (let ((?x397 (* 13.0 ?x2397)))
 (let (($x607 (<= (+ (+ (+ (* ?x977 ?x3071) (* 14.0 ?x3138)) (* 2.0 ?x273)) ?x397) ?x2946)))
 (let ((?x759 (* 16.0 |v5:6|)))
 (let (($x2269 (<= (+ (+ (+ (* 12.0 ?x3147) (* 13.0 |v5:6|)) (* ?x977 |v7:4|)) ?x759) 11.0)))
 (let ((?x2572 (- 4.0)))
 (let (($x1624 (<= (+ (+ (+ (* 17.0 |v7:4|) (* ?x977 |v6:5|)) ?x3147) (* 12.0 ?x3138)) ?x2572)))
 (let (($x1141 (or (<= (+ (+ (+ (* 4.0 ?x3138) ?x3147) ?x759) (* ?x3044 ?x3138)) 0.0) (<= (+ (+ (+ ?x1876 (* (- 7.0) |v7:4|)) ?x300) ?x397) 4.0))))
 (let ((?x451 (* 7.0 |v6:5|)))
 (let (($x1440 (<= (+ (+ (+ (* 8.0 ?x220) (* ?x977 |v4:7|)) (* 6.0 |v7:4|)) ?x451) ?x2946)))
 (let (($x2835 (<= (+ (+ (+ (* ?x1319 ?x3138) (* ?x2072 |v4:7|)) ?x2233) (* 16.0 |v6:5|)) 4.0)))
 (let (($x2545 (and (and (and $x2835 $x1440) $x1141) (and (and $x1624 $x2269) (and $x607 (<= ?x2888 ?x2387))))))
 (let ((?x991 (* 17.0 |v5:6|)))
 (let (($x669 (<= (+ (+ (+ (* 6.0 ?x3138) (* ?x2387 ?x2397)) (* 3.0 |v6:5|)) ?x991) 12.0)))
 (let (($x1757 (<= (+ (+ (+ ?x2512 (* ?x3044 |v4:7|)) (* (- 2.0) |v6:5|)) (* ?x1477 ?x2250)) ?x1319)))
 (let ((?x961 (- 2.0)))
 (let ((?x1490 (* ?x961 ?x273)))
 (let ((?x272 (+ (+ (+ (* 12.0 ?x3138) (* 5.0 (rval2 |v0:11_st|))) (* 8.0 |v4:7|)) ?x1490)))
 (let ((?x2503 (- 3.0)))
 (let ((?x970 (+ (+ (+ (* ?x1709 ?x3138) (* 19.0 |v6:5|)) (* 3.0 |v5:6|)) (* ?x2648 ?x3147))))
 (let ((?x2576 (+ (+ (+ (* ?x1709 ?x3147) (* 19.0 |v5:6|)) (* 8.0 |v7:4|)) (* ?x1642 ?x273))))
 (let (($x3438 (<= (+ (+ (+ ?x282 (* 12.0 ?x2250)) (* ?x977 |v5:6|)) (* 17.0 ?x3147)) ?x2503)))
 (let (($x2413 (<= (+ (+ (+ ?x639 (* 9.0 ?x3071)) (* 3.0 ?x2397)) (* 0.0 ?x273)) ?x2072)))
 (let ((?x1813 (* 13.0 |v7:4|)))
 (let (($x583 (<= (+ (+ (+ (* ?x2096 ?x2250) (* 7.0 ?x2397)) (* 12.0 ?x220)) ?x1813) 14.0)))
 (let (($x1693 (or (and (and $x583 $x2413) (and $x3438 (<= ?x2576 ?x3044))) (and (and (<= ?x970 ?x2503) (<= ?x272 ?x2072)) (and $x1757 $x669)))))
 (let ((?x891 (* 10.0 ?x2397)))
 (let ((?x3027 (+ (+ (+ (* ?x2072 (rval2 |v0:11_st|)) (* 10.0 |v4:7|)) (* ?x2096 |v5:6|)) ?x891)))
 (let (($x1312 (<= (+ (+ (+ (* 2.0 |v7:4|) (* 18.0 ?x2250)) (* 14.0 ?x273)) ?x1648) 9.0)))
 (let (($x1657 (<= (+ (+ (+ ?x282 (* ?x2946 ?x3071)) (* 11.0 ?x2250)) (* 6.0 ?x3147)) ?x2572)))
 (let (($x118 (and $x1657 (<= (+ (+ (+ ?x2106 (* (- 17.0) |v5:6|)) (* ?x1477 ?x2397)) ?x302) ?x2648))))
 (let ((?x1659 (+ (+ (+ (* ?x3044 ?x2397) (* 7.0 ?x273)) (* ?x2503 ?x2397)) (* 0.0 ?x220))))
 (let ((?x2636 (+ (+ (+ (* ?x1477 ?x3138) (* (- 15.0) |v4:7|)) (* 8.0 ?x220)) (* 0.0 |v6:5|))))
 (let ((?x2614 (+ (+ (+ (* ?x1319 ?x2397) (* ?x2503 ?x2250)) (* ?x1642 |v5:6|)) (* ?x1319 |v7:4|))))
 (let ((?x2753 (+ (+ (+ (* ?x3044 ?x3147) (* ?x2946 ?x3071)) (* (- 7.0) ?x2397)) (* ?x2387 (rval2 |v0:11_st|)))))
 (let (($x997 (or (and (<= ?x2753 19.0) (<= ?x2614 9.0)) (or (<= ?x2636 5.0) (<= ?x1659 7.0)))))
 (let ((?x2692 (+ (+ (+ (* 4.0 ?x3071) (* ?x1477 |v6:5|)) (* ?x977 ?x3071)) (* ?x3044 ?x273))))
 (let ((?x1291 (* 0.0 ?x3138)))
 (let (($x3199 (<= (+ (+ (+ (* 6.0 |v5:6|) (* ?x961 ?x2250)) (* ?x2572 |v6:5|)) ?x1291) 11.0)))
 (let ((?x2289 (+ (+ (+ (* 18.0 ?x2250) (* (- 17.0) ?x3138)) (* ?x2572 ?x2250)) (* ?x2503 |v7:4|))))
 (let ((?x1162 (+ (+ (+ (* ?x1642 |v4:7|) (* 16.0 |v7:4|)) (* (- 17.0) ?x2397)) (* (- 17.0) ?x273))))
 (let (($x2837 (and (and (<= ?x1162 7.0) (<= ?x2289 19.0)) (and $x3199 (<= ?x2692 20.0)))))
 (let ((?x2814 (* ?x2648 ?x3138)))
 (let (($x342 (<= (+ (+ (+ (* 14.0 |v5:6|) (* ?x2503 ?x3147)) (* ?x1477 ?x220)) ?x2814) 6.0)))
 (let ((?x3233 (* 5.0 ?x220)))
 (let ((?x2935 (+ (+ (* 4.0 ?x2397) (* ?x2572 (rval2 |v0:11_st|))) (* (- 7.0) (rval2 |v0:11_st|)))))
 (let (($x3150 (and (<= (+ (+ (+ (* 3.0 ?x220) (* 8.0 |v4:7|)) ?x555) ?x2250) ?x1774) (<= (+ (+ (+ (* ?x2946 ?x273) ?x2512) (* 15.0 |v5:6|)) ?x2814) 6.0))))
 (let ((?x1481 (* ?x1774 ?x3147)))
 (let ((?x2297 (+ (+ (+ (* (- 7.0) |v7:4|) (* (- 15.0) ?x3147)) (* 11.0 ?x3138)) ?x1481)))
 (let ((?x3121 (* 11.0 ?x2250)))
 (let ((?x2786 (+ (+ (+ (* 17.0 (rval2 |v0:11_st|)) (* ?x3044 |v5:6|)) (* ?x1477 ?x3071)) ?x3121)))
 (let (($x1566 (<= (+ (+ (+ (* ?x1709 ?x2397) ?x3121) (* 14.0 ?x3147)) (* ?x1642 ?x3147)) 13.0)))
 (let (($x1909 (<= (+ (+ (+ (* 12.0 ?x2250) (* 6.0 |v6:5|)) ?x302) (* ?x2946 |v6:5|)) 11.0)))
 (let (($x1605 (<= (+ (+ (+ ?x1291 (* ?x977 ?x3138)) (* ?x2648 |v4:7|)) (* 11.0 ?x3071)) 9.0)))
 (let ((?x2489 (* 14.0 |v7:4|)))
 (let (($x329 (<= (+ (+ (+ (* 2.0 ?x2397) (* 18.0 |v4:7|)) (* ?x2648 ?x220)) ?x2489) ?x2503)))
 (let (($x2227 (<= (+ (+ (+ (* ?x2072 ?x3071) ?x1481) (* ?x2946 |v7:4|)) (* 17.0 ?x2397)) ?x2648)))
 (let ((?x2812 (+ (+ (+ (* ?x2072 ?x3071) (* ?x2503 (rval2 |v0:11_st|))) (* 0.0 ?x273)) (* ?x496 ?x220))))
 (let (($x1109 (and (and (or (<= ?x2812 16.0) $x2227) (and $x329 $x1605)) (and (and $x1909 $x1566) (and (<= ?x2786 ?x496) (<= ?x2297 ?x2096))))))
 (let (($x903 (and $x1109 (and (and $x3150 (and (<= (+ ?x2935 ?x3233) 2.0) $x342)) $x2837))))
 (let (($x879 (and $x903 (and (and $x997 (and $x118 (or $x1312 (<= ?x3027 ?x2072)))) $x1693))))
 (let (($x1202 (and $x879 (and (and $x2545 $x1567) (and (and $x503 $x2123) (and $x458 $x2863))))))
 (let (($x1161 (not (= |v0:11_st| (RMk1 val!5315)))))
 (let (($x1272 (not (= |v1:10_st| (RMk1 val!5314)))))
 (let (($x1346 (not (= |v2:9_st| (RMk1 val!5313)))))
 (let (($x2005 (not (= |v3:8_st| (RMk1 val!5312)))))
 (let (($x1367 (not (= |v8:3_st| (RMk1 val!5311)))))
 (let (($x3058 (not (= |v9:2_st| (RMk1 val!5310)))))
 (let (($x1294 (not (= |v10:1_st| (RMk1 val!5309)))))
 (let (($x2915 (not (= |v11:0_st| (RMk1 val!5308)))))
 (and $x2915 $x1294 $x3058 $x1367 $x2005 $x1346 $x1272 $x1161 $x1202))))))))))))))))))))))))))))))))))))))))))))))))))))))))))))))))))))))))))))))))))))))))))))))))))))))))))))))))))))))))))))))))))))))))))))))))
 )
 )
 )
 )
 )
 )
 )
 )
 )
 )
 )
 )
(check-sat)
